; benchmark generated from python API
(set-info :status unknown)
(declare-datatypes ((IntState 0)) (((Mk1 (val1 Int)) (Mk2 (val2 Int)))))
 (declare-fun c_main_~k~6 () Int)
(declare-fun c_main_~j~6 () Int)
(declare-fun c_main_~i~6 () Int)
(assert
 (let (($x57 (exists ((main_~i~6_st IntState) (val!183 Int) )(let ((?x56 (val2 main_~i~6_st)))
 (let (($x5 (<= ?x56 4)))
 (let (($x106 (and (<= c_main_~j~6 (+ (* 2 ?x56) 1)) $x5 (<= ?x56 c_main_~k~6))))
 (let (($x52 (not (= main_~i~6_st (Mk1 val!183)))))
 (and $x52 $x106))))))
 ))
 (let (($x128 (<= c_main_~i~6 3)))
 (let ((?x93 (* 2 c_main_~i~6)))
 (let (($x163 (<= c_main_~j~6 ?x93)))
 (let (($x83 (<= c_main_~i~6 4)))
 (let (($x88 (<= c_main_~j~6 (+ ?x93 1))))
 (let (($x108 (exists ((main_~i~6 Int) )(let (($x118 (<= main_~i~6 4)))
 (and (<= c_main_~j~6 (+ (* 2 main_~i~6) 1)) $x118 (<= main_~i~6 c_main_~k~6))))
 ))
 (let (($x169 (<= c_main_~i~6 2)))
 (and (and $x88 $x83 $x169 $x163 $x128 $x108) (not (and $x88 $x83 $x163 $x128 $x57))))))))))))
(check-sat)
